unsat
( c10
  c113
  c114
  c129
  c132
  c146
  c147
  c148
  c149
  c164
  c166
  c17
  c183
  c202
  c222
  c223
  c225
  c229
  c234
  c241
  c253
  c262
  c265
  c272
  c283
  c29
  c295
  c308
  c309
  c322
  c323
  c337
  c353
  c370
  c371
  c38
  c388
  c39
  c407
  c408
  c426
  c427
  c428
  c446
  c448
  c459
  c460
  c461
  c462
  c48
  c5
  c59
  c71
  c73
  c84
  c98 )
